\ENCODING=ISO-8859-1
\Problem name: ilog.cplex

Minimize
 obj: 7.44663053783298 s(ke1)(ie1)(je1)(re1)#0
      + 11.4045751075399 s(ke1)(ie1)(je1)(re2)#1
      + 2.21168431873173 s(ke1)(ie1)(je2)(re1)#2
      + 14.6571009918916 s(ke1)(ie1)(je2)(re2)#3
      + 8.88819563384242 s(ke1)(ie2)(je1)(re1)#4
      + 1.54130545521031 s(ke1)(ie2)(je1)(re2)#5
      + 13.8710508452392 s(ke1)(ie2)(je2)(re1)#6
      + 8.65188796282894 s(ke1)(ie2)(je2)(re2)#7 + 960000 z(1)#8
      + 800 y(1)(1)#9 + 600 y(1)(2)#10 + 880000 z(2)#11 + 1600 y(2)(1)#12
      + 1200 y(2)(2)#13
Subject To
 c1:  s(ke1)(ie1)(je1)(re1)#0 + s(ke1)(ie1)(je1)(re2)#1
      + s(ke1)(ie1)(je2)(re1)#2 + s(ke1)(ie1)(je2)(re2)#3 <= 1200
 c3:  s(ke1)(ie2)(je1)(re1)#4 + s(ke1)(ie2)(je1)(re2)#5
      + s(ke1)(ie2)(je2)(re1)#6 + s(ke1)(ie2)(je2)(re2)#7 <= 1500
 c5:  s(ke1)(ie1)(je1)(re1)#0 + s(ke1)(ie2)(je1)(re1)#4 - 800 y(1)(1)#9  = 0
 c7:  s(ke1)(ie1)(je1)(re2)#1 + s(ke1)(ie2)(je1)(re2)#5 - 600 y(1)(2)#10  = 0
 c9:  s(ke1)(ie1)(je2)(re1)#2 + s(ke1)(ie2)(je2)(re1)#6 - 800 y(2)(1)#12  = 0
 c11: s(ke1)(ie1)(je2)(re2)#3 + s(ke1)(ie2)(je2)(re2)#7 - 600 y(2)(2)#13  = 0
 c13: y(1)(1)#9 + y(2)(1)#12  = 1
 c15: y(1)(2)#10 + y(2)(2)#13  = 1
 c17: - 1500 z(1)#8 + 800 y(1)(1)#9 + 600 y(1)(2)#10 <= 0
 c19: - 1200 z(2)#11 + 800 y(2)(1)#12 + 600 y(2)(2)#13 <= 0
 c21: 800 y(1)(1)#9 + 600 y(1)(2)#10 >= 0
 c23: 800 y(2)(1)#12 + 600 y(2)(2)#13 >= 0
 c25: z(1)#8 + z(2)#11  = 1
Bounds
 0 <= z(1)#8 <= 1
 0 <= y(1)(1)#9 <= 1
 0 <= y(1)(2)#10 <= 1
 0 <= z(2)#11 <= 1
 0 <= y(2)(1)#12 <= 1
 0 <= y(2)(2)#13 <= 1
Generals
 z(1)#8  y(1)(1)#9  y(1)(2)#10  z(2)#11  y(2)(1)#12  y(2)(2)#13 
End
